(set-logic QF_LRA)
(declare-fun X0 () Real )
(declare-fun Y0 () Real )
(declare-fun X1 () Real )
(declare-fun Y1 () Real )
(declare-fun X2 () Real )
(declare-fun Y2 () Real )
(declare-fun X3 () Real )
(declare-fun Y3 () Real )
(declare-fun X4 () Real )
(declare-fun Y4 () Real )
(declare-fun X5 () Real )
(declare-fun Y5 () Real )
(declare-fun X6 () Real )
(declare-fun Y6 () Real )
(declare-fun X7 () Real )
(declare-fun Y7 () Real )
(declare-fun X8 () Real )
(declare-fun Y8 () Real )
(declare-fun Z () Real )
(assert ( and  
( or ( <= ( + X0 72 ) X1 )  ( <= ( + X1 82 ) X0 )  ( <= ( + Y0 45 ) Y1 )  ( <= ( + Y1 69 ) Y0 )  )
( or ( <= ( + X0 72 ) X2 )  ( <= ( + X2 77 ) X0 )  ( <= ( + Y0 45 ) Y2 )  ( <= ( + Y2 20 ) Y0 )  )
( or ( <= ( + X0 72 ) X3 )  ( <= ( + X3 23 ) X0 )  ( <= ( + Y0 45 ) Y3 )  ( <= ( + Y3 35 ) Y0 )  )
( or ( <= ( + X0 72 ) X4 )  ( <= ( + X4 7 ) X0 )  ( <= ( + Y0 45 ) Y4 )  ( <= ( + Y4 31 ) Y0 )  )
( or ( <= ( + X0 72 ) X5 )  ( <= ( + X5 46 ) X0 )  ( <= ( + Y0 45 ) Y5 )  ( <= ( + Y5 26 ) Y0 )  )
( or ( <= ( + X0 72 ) X6 )  ( <= ( + X6 14 ) X0 )  ( <= ( + Y0 45 ) Y6 )  ( <= ( + Y6 10 ) Y0 )  )
( or ( <= ( + X0 72 ) X7 )  ( <= ( + X7 15 ) X0 )  ( <= ( + Y0 45 ) Y7 )  ( <= ( + Y7 52 ) Y0 )  )
( or ( <= ( + X0 72 ) X8 )  ( <= ( + X8 76 ) X0 )  ( <= ( + Y0 45 ) Y8 )  ( <= ( + Y8 12 ) Y0 )  )
( or ( <= ( + X1 82 ) X2 )  ( <= ( + X2 77 ) X1 )  ( <= ( + Y1 69 ) Y2 )  ( <= ( + Y2 20 ) Y1 )  )
( or ( <= ( + X1 82 ) X3 )  ( <= ( + X3 23 ) X1 )  ( <= ( + Y1 69 ) Y3 )  ( <= ( + Y3 35 ) Y1 )  )
( or ( <= ( + X1 82 ) X4 )  ( <= ( + X4 7 ) X1 )  ( <= ( + Y1 69 ) Y4 )  ( <= ( + Y4 31 ) Y1 )  )
( or ( <= ( + X1 82 ) X5 )  ( <= ( + X5 46 ) X1 )  ( <= ( + Y1 69 ) Y5 )  ( <= ( + Y5 26 ) Y1 )  )
( or ( <= ( + X1 82 ) X6 )  ( <= ( + X6 14 ) X1 )  ( <= ( + Y1 69 ) Y6 )  ( <= ( + Y6 10 ) Y1 )  )
( or ( <= ( + X1 82 ) X7 )  ( <= ( + X7 15 ) X1 )  ( <= ( + Y1 69 ) Y7 )  ( <= ( + Y7 52 ) Y1 )  )
( or ( <= ( + X1 82 ) X8 )  ( <= ( + X8 76 ) X1 )  ( <= ( + Y1 69 ) Y8 )  ( <= ( + Y8 12 ) Y1 )  )
( or ( <= ( + X2 77 ) X3 )  ( <= ( + X3 23 ) X2 )  ( <= ( + Y2 20 ) Y3 )  ( <= ( + Y3 35 ) Y2 )  )
( or ( <= ( + X2 77 ) X4 )  ( <= ( + X4 7 ) X2 )  ( <= ( + Y2 20 ) Y4 )  ( <= ( + Y4 31 ) Y2 )  )
( or ( <= ( + X2 77 ) X5 )  ( <= ( + X5 46 ) X2 )  ( <= ( + Y2 20 ) Y5 )  ( <= ( + Y5 26 ) Y2 )  )
( or ( <= ( + X2 77 ) X6 )  ( <= ( + X6 14 ) X2 )  ( <= ( + Y2 20 ) Y6 )  ( <= ( + Y6 10 ) Y2 )  )
( or ( <= ( + X2 77 ) X7 )  ( <= ( + X7 15 ) X2 )  ( <= ( + Y2 20 ) Y7 )  ( <= ( + Y7 52 ) Y2 )  )
( or ( <= ( + X2 77 ) X8 )  ( <= ( + X8 76 ) X2 )  ( <= ( + Y2 20 ) Y8 )  ( <= ( + Y8 12 ) Y2 )  )
( or ( <= ( + X3 23 ) X4 )  ( <= ( + X4 7 ) X3 )  ( <= ( + Y3 35 ) Y4 )  ( <= ( + Y4 31 ) Y3 )  )
( or ( <= ( + X3 23 ) X5 )  ( <= ( + X5 46 ) X3 )  ( <= ( + Y3 35 ) Y5 )  ( <= ( + Y5 26 ) Y3 )  )
( or ( <= ( + X3 23 ) X6 )  ( <= ( + X6 14 ) X3 )  ( <= ( + Y3 35 ) Y6 )  ( <= ( + Y6 10 ) Y3 )  )
( or ( <= ( + X3 23 ) X7 )  ( <= ( + X7 15 ) X3 )  ( <= ( + Y3 35 ) Y7 )  ( <= ( + Y7 52 ) Y3 )  )
( or ( <= ( + X3 23 ) X8 )  ( <= ( + X8 76 ) X3 )  ( <= ( + Y3 35 ) Y8 )  ( <= ( + Y8 12 ) Y3 )  )
( or ( <= ( + X4 7 ) X5 )  ( <= ( + X5 46 ) X4 )  ( <= ( + Y4 31 ) Y5 )  ( <= ( + Y5 26 ) Y4 )  )
( or ( <= ( + X4 7 ) X6 )  ( <= ( + X6 14 ) X4 )  ( <= ( + Y4 31 ) Y6 )  ( <= ( + Y6 10 ) Y4 )  )
( or ( <= ( + X4 7 ) X7 )  ( <= ( + X7 15 ) X4 )  ( <= ( + Y4 31 ) Y7 )  ( <= ( + Y7 52 ) Y4 )  )
( or ( <= ( + X4 7 ) X8 )  ( <= ( + X8 76 ) X4 )  ( <= ( + Y4 31 ) Y8 )  ( <= ( + Y8 12 ) Y4 )  )
( or ( <= ( + X5 46 ) X6 )  ( <= ( + X6 14 ) X5 )  ( <= ( + Y5 26 ) Y6 )  ( <= ( + Y6 10 ) Y5 )  )
( or ( <= ( + X5 46 ) X7 )  ( <= ( + X7 15 ) X5 )  ( <= ( + Y5 26 ) Y7 )  ( <= ( + Y7 52 ) Y5 )  )
( or ( <= ( + X5 46 ) X8 )  ( <= ( + X8 76 ) X5 )  ( <= ( + Y5 26 ) Y8 )  ( <= ( + Y8 12 ) Y5 )  )
( or ( <= ( + X6 14 ) X7 )  ( <= ( + X7 15 ) X6 )  ( <= ( + Y6 10 ) Y7 )  ( <= ( + Y7 52 ) Y6 )  )
( or ( <= ( + X6 14 ) X8 )  ( <= ( + X8 76 ) X6 )  ( <= ( + Y6 10 ) Y8 )  ( <= ( + Y8 12 ) Y6 )  )
( or ( <= ( + X7 15 ) X8 )  ( <= ( + X8 76 ) X7 )  ( <= ( + Y7 52 ) Y8 )  ( <= ( + Y8 12 ) Y7 )  )
( >= X0 0)
( <= ( + X0 72) Z)
( >= Y0 0)
( <= ( + Y0 45 ) 100)
( >= X1 0)
( <= ( + X1 82) Z)
( >= Y1 0)
( <= ( + Y1 69 ) 100)
( >= X2 0)
( <= ( + X2 77) Z)
( >= Y2 0)
( <= ( + Y2 20 ) 100)
( >= X3 0)
( <= ( + X3 23) Z)
( >= Y3 0)
( <= ( + Y3 35 ) 100)
( >= X4 0)
( <= ( + X4 7) Z)
( >= Y4 0)
( <= ( + Y4 31 ) 100)
( >= X5 0)
( <= ( + X5 46) Z)
( >= Y5 0)
( <= ( + Y5 26 ) 100)
( >= X6 0)
( <= ( + X6 14) Z)
( >= Y6 0)
( <= ( + Y6 10 ) 100)
( >= X7 0)
( <= ( + X7 15) Z)
( >= Y7 0)
( <= ( + Y7 52 ) 100)
( >= X8 0)
( <= ( + X8 76) Z)
( >= Y8 0)
( <= ( + Y8 12 ) 100)
) )
(minimize Z)
(check-sat)
